proyfinal/src/viki/013/andrea/andrea-localstore/experimentInOfficeAgust.take6/worker_2/a668e747-4498-49b3-bd5f-d552e9bca4f4.als.cnf.out
Reading from standard input... Use '--help' for help.
============================[ Problem Statistics ]=============================
|                                                                             |
|  Number of variables:         87638                                         |
|  Number of clauses:          161767                                         |
|  Parse time:                   0.04 s                                       |
|                                                                             |
============================[ Search Statistics ]==============================
| Conflicts |          ORIGINAL         |          LEARNT          | Progress |
|           |    Vars  Clauses Literals |    Limit  Clauses Lit/Cl |          |
===============================================================================
|       100 |   63160   107993   269944 |    39597      100     22 | 27.931 % |
|       250 |   63160   107993   269944 |    43557      250    120 | 27.931 % |
|       475 |   63160   107993   269944 |    47912      475     94 | 27.931 % |
|       812 |   63160   107993   269944 |    52704      812    122 | 27.931 % |
|      1318 |   63130   107949   269854 |    57974     1316    116 | 27.965 % |
|      2077 |   63130   107831   269580 |    63772     2075    103 | 27.965 % |
|      3216 |   63090   107669   269197 |    70149     3212    110 | 28.011 % |
|      4924 |   63063   107559   268940 |    77164     4919    115 | 28.042 % |
|      7486 |   63003   107315   268377 |    84880     7085    116 | 28.110 % |
|     11330 |   62987   107249   268224 |    93368    10928    103 | 28.128 % |
===============================================================================
restarts              : 62
conflicts             : 15676          (5848 /sec)
decisions             : 57306          (0.00 % random) (21378 /sec)
propagations          : 24183924       (9021799 /sec)
conflict literals     : 1465943        (51.63 % deleted)
Memory used           : 42.77 MB
CPU time              : 2.68061 s

INDETERMINATE
